(declare-sort fun1 0)
(declare-sort fun12 0)
(declare-datatype list ((nil) (cons (head Int) (tail list))))
(declare-datatype
  Heap
  ((Node (proj1-Node Heap) (proj2-Node Int) (proj3-Node Heap))
   (Nil)))
(declare-fun lam (Int) fun12)
(declare-const lam2 fun1)
(declare-fun apply1 (fun1 Int) fun12)
(declare-fun apply12 (fun12 Int) Bool)
(define-fun-rec
  hmerge
  ((x Heap) (y Heap)) Heap
  (match x
    (((Node z x2 x3)
      (match y
        (((Node x4 x5 x6)
          (ite
            (<= x2 x5) (Node (hmerge x3 (Node x4 x5 x6)) x2 z)
            (Node (hmerge (Node z x2 x3) x6) x5 x4)))
         (Nil (Node z x2 x3)))))
     (Nil y))))
(define-fun-rec
  toList
  ((x Heap)) list
  (match x
    (((Node p y q) (cons y (toList (hmerge p q))))
     (Nil nil))))
(define-fun
  hinsert
  ((x Int) (y Heap)) Heap (hmerge (Node Nil x Nil) y))
(define-fun-rec
  toHeap2
  ((x list)) Heap
  (match x
    ((nil Nil)
     ((cons y xs) (hinsert y (toHeap2 xs))))))
(define-fun
  hsort2
  ((x list)) list (toList (toHeap2 x)))
(define-fun-rec
  elem
  ((x Int) (y list)) Bool
  (match y
    ((nil false)
     ((cons z xs) (or (= z x) (elem x xs))))))
(define-fun-rec
  deleteBy
  ((x fun1) (y Int) (z list)) list
  (match z
    ((nil nil)
     ((cons y2 ys)
      (ite (apply12 (apply1 x y) y2) ys (cons y2 (deleteBy x y ys)))))))
(define-fun-rec
  isPermutation
  ((x list) (y list)) Bool
  (match x
    ((nil
      (match y
        ((nil true)
         ((cons z x2) false))))
     ((cons x3 xs)
      (and (elem x3 y) (isPermutation xs (deleteBy lam2 x3 y)))))))
(assert (forall ((x4 Int)) (= (apply1 lam2 x4) (lam x4))))
(assert
  (forall ((x4 Int) (x5 Int)) (= (apply12 (lam x4) x5) (= x4 x5))))
(assert (not (forall ((xs list)) (isPermutation (hsort2 xs) xs))))
(check-sat)
